100 152896
38 81 65 24 16 15 5 35 61 13 73 87 7 75 8 10 3 93 6 74 63 77 17 53 36 52 85 51 31 30 59 71 20 88 48 4 66 58 22 37 67 80 91 50 90 94 11 99 19 60 45 78 70 97 68 84 79 23 27 47 86 32 95 33 92 28 34 44 26 9 46 18 55 72 96 56 83 14 54 62 41 25 29 2 43 42 89 12 82 49 57 21 100 98 64 40 76 69 39 1 
